%chk=water
%mem=500MB
#p b3lyp/cc-pVDZ opt

              Water optimizing example

0 1
O
H 1 0.96
H 1 0.96 2 109.471221
