%chk=water
%mem=500MB
%NPROCSHARED=4
#p b3lyp/cc-pVDZ opt

structure optimization of water

0 1
O
H 1 0.96
H 1 0.96 2 109.471221

