%block LATTICE_ABC
ang
8.000000 8.000000 7.000000
90.000000 90.000000 90.000000
%endblock LATTICE_ABC

%block POSITIONS_ABS
  C 4.698560 4.000000 3.500000
  C 3.301440 4.000000 3.500000
  H 5.270880 4.923920 3.500000
  H 2.729120 3.076080 3.500000
  H 2.729120 4.923920 3.500000
  H 5.270880 3.076080 3.500000
%endblock POSITIONS_ABS

kpoints_mp_grid 1 1 1
kpoints_mp_offset 0.25 0.25 0.25

